Maximize
  - 2.9800684274655 edge_0_3_0_0 - 2.734945225832 edge_0_5_0_0
   - 3.49801273479 edge_0_6_0_0 - 3.2524870300424 edge_0_7_0_0
   - 1.5650490415947 edge_0_8_0_0 + 2.741156586789171 edge_3_5_0_0
   + 2.566069434298021 edge_3_6_0_0 + 0.5145243135289871 edge_3_7_0_0
   + 2.119974943966773 edge_3_8_0_0 + 0.3367514917516564 edge_3_9_0_0
   + 0.4574383764116391 edge_3_10_0_0 + 0.44552278487045 edge_3_12_0_0
   + 2.357396957485481 edge_3_13_0_0 + 0.3611003093315928 edge_3_14_0_0
   + 0.6069265332567499 edge_3_15_0_0 + 1.863739245856227 edge_3_16_0_0
   + 0.3235233808882773 edge_3_18_0_0 + 0.9112011236919499 edge_3_20_0_0
   + 0.3869186024102 edge_3_21_0_0 + 1.342911767266709 edge_3_22_0_0
   + 1.454916626664323 edge_3_23_0_0 + 0.5477309646743714 edge_3_24_0_0
   - 0.2534458815475205 edge_3_25_0_0 + 0.1142840054804833 edge_3_27_0_0
   - 0.4765406175272882 edge_3_29_0_0 + 2.027527964604326 edge_3_30_0_0
   + 0.6300019510912805 edge_5_3_0_0 + 0.7897917560818147 edge_5_6_0_0
   - 0.091532 edge_5_7_0_0 + 0.5623243478241888 edge_5_8_0_0
   - 0.3339825479786261 edge_5_9_0_0 - 0.6764637712027 edge_5_12_0_0
   + 0.5650799381060075 edge_5_13_0_0 - 0.8326052301090968 edge_5_14_0_0
   - 0.7567286419497 edge_5_15_0_0 + 0.5895438939360821 edge_5_16_0_0
   - 1.152835261087247 edge_5_18_0_0 - 0.1456918108146007 edge_5_20_0_0
   - 0.856705253036 edge_5_21_0_0 + 0.4370249451769446 edge_5_22_0_0
   - 1.377546954514834 edge_5_29_0_0 - 0.437023761858775 edge_6_3_0_0
   - 0.5931146833993642 edge_6_5_0_0 + 0.227782541774543 edge_6_7_0_0
   + 0.323190179912363 edge_6_8_0_0 - 0.8849976337991733 edge_7_3_0_0
   - 0.9142637541999972 edge_7_5_0_0 + 0.2533230812346436 edge_7_6_0_0
   + 0.8035839218442413 edge_7_8_0_0 - 0.3689886931328157 edge_7_9_0_0
   + 0.4404401792721366 edge_7_10_0_0 - 0.24980415890379 edge_7_12_0_0
   - 0.3083700174185687 edge_7_13_0_0 + 0.0430557725488191 edge_8_3_0_0
   - 0.1835364676882389 edge_8_5_0_0 + 0.9627368496740782 edge_8_6_0_0
   + 3.14235050691358 edge_8_7_0_0 + 3.347479384176872 edge_8_9_0_0
   + 1.084797543144432 edge_8_10_0_0 + 2.2799703316149 edge_8_12_0_0
   + 0.9649074141553191 edge_8_13_0_0 + 0.9537393972048315 edge_8_14_0_0
   + 0.8717131866688799 edge_8_15_0_0 + 0.9473392988757782 edge_8_16_0_0
   + 0.4136732024841716 edge_8_18_0_0 + 0.5913130282883271 edge_8_20_0_0
   + 0.50689173429615 edge_8_21_0_0 + 1.191669392976627 edge_8_22_0_0
   + 1.635952393565018 edge_8_23_0_0 - 0.3356419743509345 edge_8_24_0_0
   - 0.6778235231822859 edge_8_25_0_0 + 0.2643444868219338 edge_8_27_0_0
   - 0.9610773495216938 edge_8_29_0_0 + 3.210250046428627 edge_8_30_0_0
   - 0.6595323268825998 edge_9_6_0_0 - 0.5847052213120979 edge_9_7_0_0
   + 0.9294683391715559 edge_9_10_0_0 + 1.7470648218275 edge_9_12_0_0
   + 0.2783248693553235 edge_9_13_0_0 + 0.92594471934256 edge_9_14_0_0
   + 0.0591605250159 edge_9_15_0_0 + 0.2352623290767055 edge_9_16_0_0
   + 0.365353438636038 edge_10_9_0_0 + 0.64758864964003 edge_10_12_0_0
   - 0.1955718173224565 edge_10_13_0_0 - 0.6071929163978238 edge_10_14_0_0
   - 0.51391017535508 edge_10_15_0_0 - 1.810534742688 edge_12_3_0_0
   - 1.17662480887 edge_12_5_0_0 - 0.38471331298778 edge_12_6_0_0
   - 0.039285975417791 edge_12_7_0_0 - 0.4454583420500999 edge_12_8_0_0
   + 0.86976936979275 edge_12_9_0_0 + 2.0900243025123 edge_12_10_0_0
   + 2.7238838124596 edge_12_13_0_0 + 1.774879851813 edge_12_14_0_0
   + 1.13596 edge_12_15_0_0 + 1.5575652167597 edge_12_16_0_0
   + 0.8237240921728 edge_12_18_0_0 + 0.8611718840481 edge_12_20_0_0
   + 0.660819 edge_12_21_0_0 + 0.59642825137248 edge_12_22_0_0
   + 0.96572606577642 edge_12_23_0_0 + 1.2407291066744 edge_12_24_0_0
   - 0.65500484190232 edge_12_25_0_0 + 0.40240983504695 edge_12_27_0_0
   - 0.095266953227028 edge_12_29_0_0 + 0.5052710652468001 edge_12_30_0_0
   - 1.147413826899462 edge_13_9_0_0 - 0.7526630201223768 edge_13_10_0_0
   - 2.25597093595442 edge_14_3_0_0 - 1.641180361582782 edge_14_5_0_0
   - 1.054493071058122 edge_14_8_0_0 - 0.602544813739486 edge_14_9_0_0
   + 0.0386258139492583 edge_14_10_0_0 + 0.13572704724234 edge_14_12_0_0
   + 0.5537298950455336 edge_14_13_0_0 + 0.1585280074926 edge_14_15_0_0
   + 0.3872454495360791 edge_14_16_0_0 - 0.0474361791111648 edge_14_18_0_0
   + 0.0225402011969123 edge_14_20_0_0 - 0.16702962095455 edge_14_22_0_0
   - 0.3343212008323621 edge_14_24_0_0 - 0.7378902445644553 edge_14_27_0_0
   - 0.9353078407326872 edge_14_29_0_0 - 0.2252399193593783 edge_14_30_0_0
   - 0.6496689369919 edge_15_3_0_0 - 0.3358995346481 edge_15_5_0_0
   - 0.18593086667694 edge_15_6_0_0 - 0.097298951023999 edge_15_7_0_0
   - 0.062113274453067 edge_15_8_0_0 + 0.71428498953175 edge_15_9_0_0
   + 1.5694688217782 edge_15_10_0_0 + 0.790214 edge_15_12_0_0
   + 0.91179579454978 edge_15_13_0_0 + 3.3213901964586 edge_15_14_0_0
   + 2.8798397811802 edge_15_16_0_0 + 2.317817748736 edge_15_18_0_0
   + 2.5235542406829 edge_15_20_0_0 + 2.58707 edge_15_21_0_0
   + 1.9619392476552 edge_15_22_0_0 + 1.46887677331 edge_15_23_0_0
   + 1.0005792795824 edge_15_24_0_0 + 0.19169336793866 edge_15_25_0_0
   + 0.7666242510847999 edge_15_27_0_0 + 0.68452050833628 edge_15_29_0_0
   + 1.5496671331105 edge_15_30_0_0 - 0.5882859278874 edge_16_15_0_0
   - 1.835036784111754 edge_18_3_0_0 - 1.09935919183444 edge_18_5_0_0
   - 1.032801974120464 edge_18_6_0_0 - 1.003548070444836 edge_18_7_0_0
   - 0.9548838428230459 edge_18_8_0_0 - 0.3983876593500044 edge_18_9_0_0
   - 0.0375154093065352 edge_18_10_0_0 - 0.7065862167072 edge_18_12_0_0
   - 0.4373647071667432 edge_18_13_0_0 + 0.4055776718559918 edge_18_14_0_0
   + 0.4369288054432 edge_18_15_0_0 + 0.9113788399852226 edge_18_16_0_0
   + 1.553381098177097 edge_18_20_0_0 + 1.650104158848 edge_18_21_0_0
   + 0.9118714742015688 edge_18_22_0_0 + 0.5259147465247646 edge_18_23_0_0
   + 0.6497282947392909 edge_18_24_0_0 - 0.3700428053595151 edge_18_25_0_0
   + 0.080768110247658 edge_18_27_0_0 + 0.00829380018892142 edge_18_29_0_0
   + 0.5093881674477468 edge_18_30_0_0 - 0.8598786582698174 edge_20_16_0_0
   - 0.3635539570470569 edge_20_18_0_0 + 0.038094985155807 edge_20_21_0_0
   - 0.83191763321484 edge_21_14_0_0 - 0.4867423272288 edge_21_18_0_0
   + 0.51417146843658 edge_21_20_0_0 + 0.8707199713540801 edge_21_22_0_0
   + 0.60974362998125 edge_21_23_0_0 + 0.57151358850992 edge_21_24_0_0
   - 0.28219652086619 edge_21_25_0_0 + 0.02950383567706 edge_21_27_0_0
   + 0.079500310617816 edge_21_29_0_0 + 0.8174644876879 edge_21_30_0_0
   - 0.3752342811686378 edge_22_20_0_0 - 0.0090059698021752 edge_22_21_0_0
   + 0.6509695926112117 edge_22_23_0_0 - 0.2791274330759589 edge_23_25_0_0
   - 0.7949027965239744 edge_24_18_0_0 - 1.138953797249376 edge_24_20_0_0
   - 0.7141914857817601 edge_24_21_0_0 - 0.2129516546204583 edge_24_22_0_0
   + 0.6034133451725386 edge_24_23_0_0 + 0.6413175608736438 edge_24_25_0_0
   + 0.899975054648244 edge_24_27_0_0 + 0.8929721066269803 edge_24_29_0_0
   + 0.8299438670398855 edge_24_30_0_0 - 0.61232926750146 edge_25_24_0_0
   - 0.6371465712351893 edge_27_3_0_0 - 0.3964987827944382 edge_27_5_0_0
   + 0.1545652141118397 edge_27_6_0_0 - 1.007673670576801 edge_27_7_0_0
   - 0.0992827924972029 edge_27_8_0_0 + 0.444215818144974 edge_27_10_0_0
   + 0.73684424876975 edge_27_12_0_0 + 1.056520460990502 edge_27_14_0_0
   + 0.09490953340359 edge_27_15_0_0 + 0.3252927051428686 edge_27_16_0_0
   + 0.5541538018133312 edge_27_18_0_0 + 0.16294926750645 edge_27_21_0_0
   + 0.9007827978679065 edge_27_22_0_0 + 0.7417066258564653 edge_27_23_0_0
   + 1.255940055190009 edge_27_24_0_0 + 1.495087479727607 edge_27_25_0_0
   + 3.4784126682778 edge_27_29_0_0 + 1.783770355217738 edge_27_30_0_0
   - 0.2026623176456386 edge_29_23_0_0 + 0.5502646008373221 edge_29_24_0_0
   + 0.5581222692676649 edge_29_25_0_0 + 1.491742414416346 edge_29_27_0_0
   + 1.17614354294442 edge_29_30_0_0 - 1.51450340355302 edge_30_27_0_0
Subject To
 one_parent_1: = 1
 consume_one_flow_unit_1: = 1
 one_parent_2: = 1
 consume_one_flow_unit_2: = 1
 one_parent_3: edge_0_3_0_0 + edge_5_3_0_0 + edge_6_3_0_0 + edge_7_3_0_0
   + edge_8_3_0_0 + edge_12_3_0_0 + edge_14_3_0_0 + edge_15_3_0_0
   + edge_18_3_0_0 + edge_27_3_0_0 = 1
 consume_one_flow_unit_3: flow_0_3_0_0 - flow_3_5_0_0 - flow_3_6_0_0
   - flow_3_7_0_0 - flow_3_8_0_0 - flow_3_9_0_0 - flow_3_10_0_0
   - flow_3_12_0_0 - flow_3_13_0_0 - flow_3_14_0_0 - flow_3_15_0_0
   - flow_3_16_0_0 - flow_3_18_0_0 - flow_3_20_0_0 - flow_3_21_0_0
   - flow_3_22_0_0 - flow_3_23_0_0 - flow_3_24_0_0 - flow_3_25_0_0
   - flow_3_27_0_0 - flow_3_29_0_0 - flow_3_30_0_0 + flow_5_3_0_0
   + flow_6_3_0_0 + flow_7_3_0_0 + flow_8_3_0_0 + flow_12_3_0_0
   + flow_14_3_0_0 + flow_15_3_0_0 + flow_18_3_0_0 + flow_27_3_0_0 = 1
 one_parent_4: = 1
 consume_one_flow_unit_4: = 1
 one_parent_5: edge_0_5_0_0 + edge_3_5_0_0 + edge_6_5_0_0 + edge_7_5_0_0
   + edge_8_5_0_0 + edge_12_5_0_0 + edge_14_5_0_0 + edge_15_5_0_0
   + edge_18_5_0_0 + edge_27_5_0_0 = 1
 consume_one_flow_unit_5: flow_0_5_0_0 + flow_3_5_0_0 - flow_5_3_0_0
   - flow_5_6_0_0 - flow_5_7_0_0 - flow_5_8_0_0 - flow_5_9_0_0
   - flow_5_12_0_0 - flow_5_13_0_0 - flow_5_14_0_0 - flow_5_15_0_0
   - flow_5_16_0_0 - flow_5_18_0_0 - flow_5_20_0_0 - flow_5_21_0_0
   - flow_5_22_0_0 - flow_5_29_0_0 + flow_6_5_0_0 + flow_7_5_0_0
   + flow_8_5_0_0 + flow_12_5_0_0 + flow_14_5_0_0 + flow_15_5_0_0
   + flow_18_5_0_0 + flow_27_5_0_0 = 1
 one_parent_6: edge_0_6_0_0 + edge_3_6_0_0 + edge_5_6_0_0 + edge_7_6_0_0
   + edge_8_6_0_0 + edge_9_6_0_0 + edge_12_6_0_0 + edge_15_6_0_0
   + edge_18_6_0_0 + edge_27_6_0_0 = 1
 consume_one_flow_unit_6: flow_0_6_0_0 + flow_3_6_0_0 + flow_5_6_0_0
   - flow_6_3_0_0 - flow_6_5_0_0 - flow_6_7_0_0 - flow_6_8_0_0
   + flow_7_6_0_0 + flow_8_6_0_0 + flow_9_6_0_0 + flow_12_6_0_0
   + flow_15_6_0_0 + flow_18_6_0_0 + flow_27_6_0_0 = 1
 one_parent_7: edge_0_7_0_0 + edge_3_7_0_0 + edge_5_7_0_0 + edge_6_7_0_0
   + edge_8_7_0_0 + edge_9_7_0_0 + edge_12_7_0_0 + edge_15_7_0_0
   + edge_18_7_0_0 + edge_27_7_0_0 = 1
 consume_one_flow_unit_7: flow_0_7_0_0 + flow_3_7_0_0 + flow_5_7_0_0
   + flow_6_7_0_0 - flow_7_3_0_0 - flow_7_5_0_0 - flow_7_6_0_0
   - flow_7_8_0_0 - flow_7_9_0_0 - flow_7_10_0_0 - flow_7_12_0_0
   - flow_7_13_0_0 + flow_8_7_0_0 + flow_9_7_0_0 + flow_12_7_0_0
   + flow_15_7_0_0 + flow_18_7_0_0 + flow_27_7_0_0 = 1
 one_parent_8: edge_0_8_0_0 + edge_3_8_0_0 + edge_5_8_0_0 + edge_6_8_0_0
   + edge_7_8_0_0 + edge_12_8_0_0 + edge_14_8_0_0 + edge_15_8_0_0
   + edge_18_8_0_0 + edge_27_8_0_0 = 1
 consume_one_flow_unit_8: flow_0_8_0_0 + flow_3_8_0_0 + flow_5_8_0_0
   + flow_6_8_0_0 + flow_7_8_0_0 - flow_8_3_0_0 - flow_8_5_0_0
   - flow_8_6_0_0 - flow_8_7_0_0 - flow_8_9_0_0 - flow_8_10_0_0
   - flow_8_12_0_0 - flow_8_13_0_0 - flow_8_14_0_0 - flow_8_15_0_0
   - flow_8_16_0_0 - flow_8_18_0_0 - flow_8_20_0_0 - flow_8_21_0_0
   - flow_8_22_0_0 - flow_8_23_0_0 - flow_8_24_0_0 - flow_8_25_0_0
   - flow_8_27_0_0 - flow_8_29_0_0 - flow_8_30_0_0 + flow_12_8_0_0
   + flow_14_8_0_0 + flow_15_8_0_0 + flow_18_8_0_0 + flow_27_8_0_0 = 1
 one_parent_9: edge_3_9_0_0 + edge_5_9_0_0 + edge_7_9_0_0 + edge_8_9_0_0
   + edge_10_9_0_0 + edge_12_9_0_0 + edge_13_9_0_0 + edge_14_9_0_0
   + edge_15_9_0_0 + edge_18_9_0_0 = 1
 consume_one_flow_unit_9: flow_3_9_0_0 + flow_5_9_0_0 + flow_7_9_0_0
   + flow_8_9_0_0 - flow_9_6_0_0 - flow_9_7_0_0 - flow_9_10_0_0
   - flow_9_12_0_0 - flow_9_13_0_0 - flow_9_14_0_0 - flow_9_15_0_0
   - flow_9_16_0_0 + flow_10_9_0_0 + flow_12_9_0_0 + flow_13_9_0_0
   + flow_14_9_0_0 + flow_15_9_0_0 + flow_18_9_0_0 = 1
 one_parent_10: edge_3_10_0_0 + edge_7_10_0_0 + edge_8_10_0_0
   + edge_9_10_0_0 + edge_12_10_0_0 + edge_13_10_0_0 + edge_14_10_0_0
   + edge_15_10_0_0 + edge_18_10_0_0 + edge_27_10_0_0 = 1
 consume_one_flow_unit_10: flow_3_10_0_0 + flow_7_10_0_0 + flow_8_10_0_0
   + flow_9_10_0_0 - flow_10_9_0_0 - flow_10_12_0_0 - flow_10_13_0_0
   - flow_10_14_0_0 - flow_10_15_0_0 + flow_12_10_0_0 + flow_13_10_0_0
   + flow_14_10_0_0 + flow_15_10_0_0 + flow_18_10_0_0 + flow_27_10_0_0 = 1
 one_parent_11: = 1
 consume_one_flow_unit_11: = 1
 one_parent_12: edge_3_12_0_0 + edge_5_12_0_0 + edge_7_12_0_0
   + edge_8_12_0_0 + edge_9_12_0_0 + edge_10_12_0_0 + edge_14_12_0_0
   + edge_15_12_0_0 + edge_18_12_0_0 + edge_27_12_0_0 = 1
 consume_one_flow_unit_12: flow_3_12_0_0 + flow_5_12_0_0 + flow_7_12_0_0
   + flow_8_12_0_0 + flow_9_12_0_0 + flow_10_12_0_0 - flow_12_3_0_0
   - flow_12_5_0_0 - flow_12_6_0_0 - flow_12_7_0_0 - flow_12_8_0_0
   - flow_12_9_0_0 - flow_12_10_0_0 - flow_12_13_0_0 - flow_12_14_0_0
   - flow_12_15_0_0 - flow_12_16_0_0 - flow_12_18_0_0 - flow_12_20_0_0
   - flow_12_21_0_0 - flow_12_22_0_0 - flow_12_23_0_0 - flow_12_24_0_0
   - flow_12_25_0_0 - flow_12_27_0_0 - flow_12_29_0_0 - flow_12_30_0_0
   + flow_14_12_0_0 + flow_15_12_0_0 + flow_18_12_0_0 + flow_27_12_0_0 = 1
 one_parent_13: edge_3_13_0_0 + edge_5_13_0_0 + edge_7_13_0_0
   + edge_8_13_0_0 + edge_9_13_0_0 + edge_10_13_0_0 + edge_12_13_0_0
   + edge_14_13_0_0 + edge_15_13_0_0 + edge_18_13_0_0 = 1
 consume_one_flow_unit_13: flow_3_13_0_0 + flow_5_13_0_0 + flow_7_13_0_0
   + flow_8_13_0_0 + flow_9_13_0_0 + flow_10_13_0_0 + flow_12_13_0_0
   - flow_13_9_0_0 - flow_13_10_0_0 + flow_14_13_0_0 + flow_15_13_0_0
   + flow_18_13_0_0 = 1
 one_parent_14: edge_3_14_0_0 + edge_5_14_0_0 + edge_8_14_0_0
   + edge_9_14_0_0 + edge_10_14_0_0 + edge_12_14_0_0 + edge_15_14_0_0
   + edge_18_14_0_0 + edge_21_14_0_0 + edge_27_14_0_0 = 1
 consume_one_flow_unit_14: flow_3_14_0_0 + flow_5_14_0_0 + flow_8_14_0_0
   + flow_9_14_0_0 + flow_10_14_0_0 + flow_12_14_0_0 - flow_14_3_0_0
   - flow_14_5_0_0 - flow_14_8_0_0 - flow_14_9_0_0 - flow_14_10_0_0
   - flow_14_12_0_0 - flow_14_13_0_0 - flow_14_15_0_0 - flow_14_16_0_0
   - flow_14_18_0_0 - flow_14_20_0_0 - flow_14_22_0_0 - flow_14_24_0_0
   - flow_14_27_0_0 - flow_14_29_0_0 - flow_14_30_0_0 + flow_15_14_0_0
   + flow_18_14_0_0 + flow_21_14_0_0 + flow_27_14_0_0 = 1
 one_parent_15: edge_3_15_0_0 + edge_5_15_0_0 + edge_8_15_0_0
   + edge_9_15_0_0 + edge_10_15_0_0 + edge_12_15_0_0 + edge_14_15_0_0
   + edge_16_15_0_0 + edge_18_15_0_0 + edge_27_15_0_0 = 1
 consume_one_flow_unit_15: flow_3_15_0_0 + flow_5_15_0_0 + flow_8_15_0_0
   + flow_9_15_0_0 + flow_10_15_0_0 + flow_12_15_0_0 + flow_14_15_0_0
   - flow_15_3_0_0 - flow_15_5_0_0 - flow_15_6_0_0 - flow_15_7_0_0
   - flow_15_8_0_0 - flow_15_9_0_0 - flow_15_10_0_0 - flow_15_12_0_0
   - flow_15_13_0_0 - flow_15_14_0_0 - flow_15_16_0_0 - flow_15_18_0_0
   - flow_15_20_0_0 - flow_15_21_0_0 - flow_15_22_0_0 - flow_15_23_0_0
   - flow_15_24_0_0 - flow_15_25_0_0 - flow_15_27_0_0 - flow_15_29_0_0
   - flow_15_30_0_0 + flow_16_15_0_0 + flow_18_15_0_0 + flow_27_15_0_0 = 1
 one_parent_16: edge_3_16_0_0 + edge_5_16_0_0 + edge_8_16_0_0
   + edge_9_16_0_0 + edge_12_16_0_0 + edge_14_16_0_0 + edge_15_16_0_0
   + edge_18_16_0_0 + edge_20_16_0_0 + edge_27_16_0_0 = 1
 consume_one_flow_unit_16: flow_3_16_0_0 + flow_5_16_0_0 + flow_8_16_0_0
   + flow_9_16_0_0 + flow_12_16_0_0 + flow_14_16_0_0 + flow_15_16_0_0
   - flow_16_15_0_0 + flow_18_16_0_0 + flow_20_16_0_0 + flow_27_16_0_0 = 1
 one_parent_17: = 1
 consume_one_flow_unit_17: = 1
 one_parent_18: edge_3_18_0_0 + edge_5_18_0_0 + edge_8_18_0_0
   + edge_12_18_0_0 + edge_14_18_0_0 + edge_15_18_0_0 + edge_20_18_0_0
   + edge_21_18_0_0 + edge_24_18_0_0 + edge_27_18_0_0 = 1
 consume_one_flow_unit_18: flow_3_18_0_0 + flow_5_18_0_0 + flow_8_18_0_0
   + flow_12_18_0_0 + flow_14_18_0_0 + flow_15_18_0_0 - flow_18_3_0_0
   - flow_18_5_0_0 - flow_18_6_0_0 - flow_18_7_0_0 - flow_18_8_0_0
   - flow_18_9_0_0 - flow_18_10_0_0 - flow_18_12_0_0 - flow_18_13_0_0
   - flow_18_14_0_0 - flow_18_15_0_0 - flow_18_16_0_0 - flow_18_20_0_0
   - flow_18_21_0_0 - flow_18_22_0_0 - flow_18_23_0_0 - flow_18_24_0_0
   - flow_18_25_0_0 - flow_18_27_0_0 - flow_18_29_0_0 - flow_18_30_0_0
   + flow_20_18_0_0 + flow_21_18_0_0 + flow_24_18_0_0 + flow_27_18_0_0 = 1
 one_parent_19: = 1
 consume_one_flow_unit_19: = 1
 one_parent_20: edge_3_20_0_0 + edge_5_20_0_0 + edge_8_20_0_0
   + edge_12_20_0_0 + edge_14_20_0_0 + edge_15_20_0_0 + edge_18_20_0_0
   + edge_21_20_0_0 + edge_22_20_0_0 + edge_24_20_0_0 = 1
 consume_one_flow_unit_20: flow_3_20_0_0 + flow_5_20_0_0 + flow_8_20_0_0
   + flow_12_20_0_0 + flow_14_20_0_0 + flow_15_20_0_0 + flow_18_20_0_0
   - flow_20_16_0_0 - flow_20_18_0_0 - flow_20_21_0_0 + flow_21_20_0_0
   + flow_22_20_0_0 + flow_24_20_0_0 = 1
 one_parent_21: edge_3_21_0_0 + edge_5_21_0_0 + edge_8_21_0_0
   + edge_12_21_0_0 + edge_15_21_0_0 + edge_18_21_0_0 + edge_20_21_0_0
   + edge_22_21_0_0 + edge_24_21_0_0 + edge_27_21_0_0 = 1
 consume_one_flow_unit_21: flow_3_21_0_0 + flow_5_21_0_0 + flow_8_21_0_0
   + flow_12_21_0_0 + flow_15_21_0_0 + flow_18_21_0_0 + flow_20_21_0_0
   - flow_21_14_0_0 - flow_21_18_0_0 - flow_21_20_0_0 - flow_21_22_0_0
   - flow_21_23_0_0 - flow_21_24_0_0 - flow_21_25_0_0 - flow_21_27_0_0
   - flow_21_29_0_0 - flow_21_30_0_0 + flow_22_21_0_0 + flow_24_21_0_0
   + flow_27_21_0_0 = 1
 one_parent_22: edge_3_22_0_0 + edge_5_22_0_0 + edge_8_22_0_0
   + edge_12_22_0_0 + edge_14_22_0_0 + edge_15_22_0_0 + edge_18_22_0_0
   + edge_21_22_0_0 + edge_24_22_0_0 + edge_27_22_0_0 = 1
 consume_one_flow_unit_22: flow_3_22_0_0 + flow_5_22_0_0 + flow_8_22_0_0
   + flow_12_22_0_0 + flow_14_22_0_0 + flow_15_22_0_0 + flow_18_22_0_0
   + flow_21_22_0_0 - flow_22_20_0_0 - flow_22_21_0_0 - flow_22_23_0_0
   + flow_24_22_0_0 + flow_27_22_0_0 = 1
 one_parent_23: edge_3_23_0_0 + edge_8_23_0_0 + edge_12_23_0_0
   + edge_15_23_0_0 + edge_18_23_0_0 + edge_21_23_0_0 + edge_22_23_0_0
   + edge_24_23_0_0 + edge_27_23_0_0 + edge_29_23_0_0 = 1
 consume_one_flow_unit_23: flow_3_23_0_0 + flow_8_23_0_0 + flow_12_23_0_0
   + flow_15_23_0_0 + flow_18_23_0_0 + flow_21_23_0_0 + flow_22_23_0_0
   - flow_23_25_0_0 + flow_24_23_0_0 + flow_27_23_0_0 + flow_29_23_0_0 = 1
 one_parent_24: edge_3_24_0_0 + edge_8_24_0_0 + edge_12_24_0_0
   + edge_14_24_0_0 + edge_15_24_0_0 + edge_18_24_0_0 + edge_21_24_0_0
   + edge_25_24_0_0 + edge_27_24_0_0 + edge_29_24_0_0 = 1
 consume_one_flow_unit_24: flow_3_24_0_0 + flow_8_24_0_0 + flow_12_24_0_0
   + flow_14_24_0_0 + flow_15_24_0_0 + flow_18_24_0_0 + flow_21_24_0_0
   - flow_24_18_0_0 - flow_24_20_0_0 - flow_24_21_0_0 - flow_24_22_0_0
   - flow_24_23_0_0 - flow_24_25_0_0 - flow_24_27_0_0 - flow_24_29_0_0
   - flow_24_30_0_0 + flow_25_24_0_0 + flow_27_24_0_0 + flow_29_24_0_0 = 1
 one_parent_25: edge_3_25_0_0 + edge_8_25_0_0 + edge_12_25_0_0
   + edge_15_25_0_0 + edge_18_25_0_0 + edge_21_25_0_0 + edge_23_25_0_0
   + edge_24_25_0_0 + edge_27_25_0_0 + edge_29_25_0_0 = 1
 consume_one_flow_unit_25: flow_3_25_0_0 + flow_8_25_0_0 + flow_12_25_0_0
   + flow_15_25_0_0 + flow_18_25_0_0 + flow_21_25_0_0 + flow_23_25_0_0
   + flow_24_25_0_0 - flow_25_24_0_0 + flow_27_25_0_0 + flow_29_25_0_0 = 1
 one_parent_26: = 1
 consume_one_flow_unit_26: = 1
 one_parent_27: edge_3_27_0_0 + edge_8_27_0_0 + edge_12_27_0_0
   + edge_14_27_0_0 + edge_15_27_0_0 + edge_18_27_0_0 + edge_21_27_0_0
   + edge_24_27_0_0 + edge_29_27_0_0 + edge_30_27_0_0 = 1
 consume_one_flow_unit_27: flow_3_27_0_0 + flow_8_27_0_0 + flow_12_27_0_0
   + flow_14_27_0_0 + flow_15_27_0_0 + flow_18_27_0_0 + flow_21_27_0_0
   + flow_24_27_0_0 - flow_27_3_0_0 - flow_27_5_0_0 - flow_27_6_0_0
   - flow_27_7_0_0 - flow_27_8_0_0 - flow_27_10_0_0 - flow_27_12_0_0
   - flow_27_14_0_0 - flow_27_15_0_0 - flow_27_16_0_0 - flow_27_18_0_0
   - flow_27_21_0_0 - flow_27_22_0_0 - flow_27_23_0_0 - flow_27_24_0_0
   - flow_27_25_0_0 - flow_27_29_0_0 - flow_27_30_0_0 + flow_29_27_0_0
   + flow_30_27_0_0 = 1
 one_parent_28: = 1
 consume_one_flow_unit_28: = 1
 one_parent_29: edge_3_29_0_0 + edge_5_29_0_0 + edge_8_29_0_0
   + edge_12_29_0_0 + edge_14_29_0_0 + edge_15_29_0_0 + edge_18_29_0_0
   + edge_21_29_0_0 + edge_24_29_0_0 + edge_27_29_0_0 = 1
 consume_one_flow_unit_29: flow_3_29_0_0 + flow_5_29_0_0 + flow_8_29_0_0
   + flow_12_29_0_0 + flow_14_29_0_0 + flow_15_29_0_0 + flow_18_29_0_0
   + flow_21_29_0_0 + flow_24_29_0_0 + flow_27_29_0_0 - flow_29_23_0_0
   - flow_29_24_0_0 - flow_29_25_0_0 - flow_29_27_0_0 - flow_29_30_0_0 = 1
 one_parent_30: edge_3_30_0_0 + edge_8_30_0_0 + edge_12_30_0_0
   + edge_14_30_0_0 + edge_15_30_0_0 + edge_18_30_0_0 + edge_21_30_0_0
   + edge_24_30_0_0 + edge_27_30_0_0 + edge_29_30_0_0 = 1
 consume_one_flow_unit_30: flow_3_30_0_0 + flow_8_30_0_0 + flow_12_30_0_0
   + flow_14_30_0_0 + flow_15_30_0_0 + flow_18_30_0_0 + flow_21_30_0_0
   + flow_24_30_0_0 + flow_27_30_0_0 + flow_29_30_0_0 - flow_30_27_0_0 = 1
 root_flow: flow_0_3_0_0 + flow_0_5_0_0 + flow_0_6_0_0 + flow_0_7_0_0
   + flow_0_8_0_0 = 30
 inactive_no_flow_0_3_0_0: flow_0_3_0_0 - 1000 edge_0_3_0_0 <= 0
 inactive_no_flow_0_5_0_0: flow_0_5_0_0 - 1000 edge_0_5_0_0 <= 0
 inactive_no_flow_0_6_0_0: flow_0_6_0_0 - 1000 edge_0_6_0_0 <= 0
 inactive_no_flow_0_7_0_0: flow_0_7_0_0 - 1000 edge_0_7_0_0 <= 0
 inactive_no_flow_0_8_0_0: flow_0_8_0_0 - 1000 edge_0_8_0_0 <= 0
 inactive_no_flow_3_5_0_0: flow_3_5_0_0 - 1000 edge_3_5_0_0 <= 0
 inactive_no_flow_3_6_0_0: flow_3_6_0_0 - 1000 edge_3_6_0_0 <= 0
 inactive_no_flow_3_7_0_0: flow_3_7_0_0 - 1000 edge_3_7_0_0 <= 0
 inactive_no_flow_3_8_0_0: flow_3_8_0_0 - 1000 edge_3_8_0_0 <= 0
 inactive_no_flow_3_9_0_0: flow_3_9_0_0 - 1000 edge_3_9_0_0 <= 0
 inactive_no_flow_3_10_0_0: flow_3_10_0_0 - 1000 edge_3_10_0_0 <= 0
 inactive_no_flow_3_12_0_0: flow_3_12_0_0 - 1000 edge_3_12_0_0 <= 0
 inactive_no_flow_3_13_0_0: flow_3_13_0_0 - 1000 edge_3_13_0_0 <= 0
 inactive_no_flow_3_14_0_0: flow_3_14_0_0 - 1000 edge_3_14_0_0 <= 0
 inactive_no_flow_3_15_0_0: flow_3_15_0_0 - 1000 edge_3_15_0_0 <= 0
 inactive_no_flow_3_16_0_0: flow_3_16_0_0 - 1000 edge_3_16_0_0 <= 0
 inactive_no_flow_3_18_0_0: flow_3_18_0_0 - 1000 edge_3_18_0_0 <= 0
 inactive_no_flow_3_20_0_0: flow_3_20_0_0 - 1000 edge_3_20_0_0 <= 0
 inactive_no_flow_3_21_0_0: flow_3_21_0_0 - 1000 edge_3_21_0_0 <= 0
 inactive_no_flow_3_22_0_0: flow_3_22_0_0 - 1000 edge_3_22_0_0 <= 0
 inactive_no_flow_3_23_0_0: flow_3_23_0_0 - 1000 edge_3_23_0_0 <= 0
 inactive_no_flow_3_24_0_0: flow_3_24_0_0 - 1000 edge_3_24_0_0 <= 0
 inactive_no_flow_3_25_0_0: flow_3_25_0_0 - 1000 edge_3_25_0_0 <= 0
 inactive_no_flow_3_27_0_0: flow_3_27_0_0 - 1000 edge_3_27_0_0 <= 0
 inactive_no_flow_3_29_0_0: flow_3_29_0_0 - 1000 edge_3_29_0_0 <= 0
 inactive_no_flow_3_30_0_0: flow_3_30_0_0 - 1000 edge_3_30_0_0 <= 0
 inactive_no_flow_5_3_0_0: flow_5_3_0_0 - 1000 edge_5_3_0_0 <= 0
 inactive_no_flow_5_6_0_0: flow_5_6_0_0 - 1000 edge_5_6_0_0 <= 0
 inactive_no_flow_5_7_0_0: flow_5_7_0_0 - 1000 edge_5_7_0_0 <= 0
 inactive_no_flow_5_8_0_0: flow_5_8_0_0 - 1000 edge_5_8_0_0 <= 0
 inactive_no_flow_5_9_0_0: flow_5_9_0_0 - 1000 edge_5_9_0_0 <= 0
 inactive_no_flow_5_12_0_0: flow_5_12_0_0 - 1000 edge_5_12_0_0 <= 0
 inactive_no_flow_5_13_0_0: flow_5_13_0_0 - 1000 edge_5_13_0_0 <= 0
 inactive_no_flow_5_14_0_0: flow_5_14_0_0 - 1000 edge_5_14_0_0 <= 0
 inactive_no_flow_5_15_0_0: flow_5_15_0_0 - 1000 edge_5_15_0_0 <= 0
 inactive_no_flow_5_16_0_0: flow_5_16_0_0 - 1000 edge_5_16_0_0 <= 0
 inactive_no_flow_5_18_0_0: flow_5_18_0_0 - 1000 edge_5_18_0_0 <= 0
 inactive_no_flow_5_20_0_0: flow_5_20_0_0 - 1000 edge_5_20_0_0 <= 0
 inactive_no_flow_5_21_0_0: flow_5_21_0_0 - 1000 edge_5_21_0_0 <= 0
 inactive_no_flow_5_22_0_0: flow_5_22_0_0 - 1000 edge_5_22_0_0 <= 0
 inactive_no_flow_5_29_0_0: flow_5_29_0_0 - 1000 edge_5_29_0_0 <= 0
 inactive_no_flow_6_3_0_0: flow_6_3_0_0 - 1000 edge_6_3_0_0 <= 0
 inactive_no_flow_6_5_0_0: flow_6_5_0_0 - 1000 edge_6_5_0_0 <= 0
 inactive_no_flow_6_7_0_0: flow_6_7_0_0 - 1000 edge_6_7_0_0 <= 0
 inactive_no_flow_6_8_0_0: flow_6_8_0_0 - 1000 edge_6_8_0_0 <= 0
 inactive_no_flow_7_3_0_0: flow_7_3_0_0 - 1000 edge_7_3_0_0 <= 0
 inactive_no_flow_7_5_0_0: flow_7_5_0_0 - 1000 edge_7_5_0_0 <= 0
 inactive_no_flow_7_6_0_0: flow_7_6_0_0 - 1000 edge_7_6_0_0 <= 0
 inactive_no_flow_7_8_0_0: flow_7_8_0_0 - 1000 edge_7_8_0_0 <= 0
 inactive_no_flow_7_9_0_0: flow_7_9_0_0 - 1000 edge_7_9_0_0 <= 0
 inactive_no_flow_7_10_0_0: flow_7_10_0_0 - 1000 edge_7_10_0_0 <= 0
 inactive_no_flow_7_12_0_0: flow_7_12_0_0 - 1000 edge_7_12_0_0 <= 0
 inactive_no_flow_7_13_0_0: flow_7_13_0_0 - 1000 edge_7_13_0_0 <= 0
 inactive_no_flow_8_3_0_0: flow_8_3_0_0 - 1000 edge_8_3_0_0 <= 0
 inactive_no_flow_8_5_0_0: flow_8_5_0_0 - 1000 edge_8_5_0_0 <= 0
 inactive_no_flow_8_6_0_0: flow_8_6_0_0 - 1000 edge_8_6_0_0 <= 0
 inactive_no_flow_8_7_0_0: flow_8_7_0_0 - 1000 edge_8_7_0_0 <= 0
 inactive_no_flow_8_9_0_0: flow_8_9_0_0 - 1000 edge_8_9_0_0 <= 0
 inactive_no_flow_8_10_0_0: flow_8_10_0_0 - 1000 edge_8_10_0_0 <= 0
 inactive_no_flow_8_12_0_0: flow_8_12_0_0 - 1000 edge_8_12_0_0 <= 0
 inactive_no_flow_8_13_0_0: flow_8_13_0_0 - 1000 edge_8_13_0_0 <= 0
 inactive_no_flow_8_14_0_0: flow_8_14_0_0 - 1000 edge_8_14_0_0 <= 0
 inactive_no_flow_8_15_0_0: flow_8_15_0_0 - 1000 edge_8_15_0_0 <= 0
 inactive_no_flow_8_16_0_0: flow_8_16_0_0 - 1000 edge_8_16_0_0 <= 0
 inactive_no_flow_8_18_0_0: flow_8_18_0_0 - 1000 edge_8_18_0_0 <= 0
 inactive_no_flow_8_20_0_0: flow_8_20_0_0 - 1000 edge_8_20_0_0 <= 0
 inactive_no_flow_8_21_0_0: flow_8_21_0_0 - 1000 edge_8_21_0_0 <= 0
 inactive_no_flow_8_22_0_0: flow_8_22_0_0 - 1000 edge_8_22_0_0 <= 0
 inactive_no_flow_8_23_0_0: flow_8_23_0_0 - 1000 edge_8_23_0_0 <= 0
 inactive_no_flow_8_24_0_0: flow_8_24_0_0 - 1000 edge_8_24_0_0 <= 0
 inactive_no_flow_8_25_0_0: flow_8_25_0_0 - 1000 edge_8_25_0_0 <= 0
 inactive_no_flow_8_27_0_0: flow_8_27_0_0 - 1000 edge_8_27_0_0 <= 0
 inactive_no_flow_8_29_0_0: flow_8_29_0_0 - 1000 edge_8_29_0_0 <= 0
 inactive_no_flow_8_30_0_0: flow_8_30_0_0 - 1000 edge_8_30_0_0 <= 0
 inactive_no_flow_9_6_0_0: flow_9_6_0_0 - 1000 edge_9_6_0_0 <= 0
 inactive_no_flow_9_7_0_0: flow_9_7_0_0 - 1000 edge_9_7_0_0 <= 0
 inactive_no_flow_9_10_0_0: flow_9_10_0_0 - 1000 edge_9_10_0_0 <= 0
 inactive_no_flow_9_12_0_0: flow_9_12_0_0 - 1000 edge_9_12_0_0 <= 0
 inactive_no_flow_9_13_0_0: flow_9_13_0_0 - 1000 edge_9_13_0_0 <= 0
 inactive_no_flow_9_14_0_0: flow_9_14_0_0 - 1000 edge_9_14_0_0 <= 0
 inactive_no_flow_9_15_0_0: flow_9_15_0_0 - 1000 edge_9_15_0_0 <= 0
 inactive_no_flow_9_16_0_0: flow_9_16_0_0 - 1000 edge_9_16_0_0 <= 0
 inactive_no_flow_10_9_0_0: flow_10_9_0_0 - 1000 edge_10_9_0_0 <= 0
 inactive_no_flow_10_12_0_0: flow_10_12_0_0 - 1000 edge_10_12_0_0 <= 0
 inactive_no_flow_10_13_0_0: flow_10_13_0_0 - 1000 edge_10_13_0_0 <= 0
 inactive_no_flow_10_14_0_0: flow_10_14_0_0 - 1000 edge_10_14_0_0 <= 0
 inactive_no_flow_10_15_0_0: flow_10_15_0_0 - 1000 edge_10_15_0_0 <= 0
 inactive_no_flow_12_3_0_0: flow_12_3_0_0 - 1000 edge_12_3_0_0 <= 0
 inactive_no_flow_12_5_0_0: flow_12_5_0_0 - 1000 edge_12_5_0_0 <= 0
 inactive_no_flow_12_6_0_0: flow_12_6_0_0 - 1000 edge_12_6_0_0 <= 0
 inactive_no_flow_12_7_0_0: flow_12_7_0_0 - 1000 edge_12_7_0_0 <= 0
 inactive_no_flow_12_8_0_0: flow_12_8_0_0 - 1000 edge_12_8_0_0 <= 0
 inactive_no_flow_12_9_0_0: flow_12_9_0_0 - 1000 edge_12_9_0_0 <= 0
 inactive_no_flow_12_10_0_0: flow_12_10_0_0 - 1000 edge_12_10_0_0 <= 0
 inactive_no_flow_12_13_0_0: flow_12_13_0_0 - 1000 edge_12_13_0_0 <= 0
 inactive_no_flow_12_14_0_0: flow_12_14_0_0 - 1000 edge_12_14_0_0 <= 0
 inactive_no_flow_12_15_0_0: flow_12_15_0_0 - 1000 edge_12_15_0_0 <= 0
 inactive_no_flow_12_16_0_0: flow_12_16_0_0 - 1000 edge_12_16_0_0 <= 0
 inactive_no_flow_12_18_0_0: flow_12_18_0_0 - 1000 edge_12_18_0_0 <= 0
 inactive_no_flow_12_20_0_0: flow_12_20_0_0 - 1000 edge_12_20_0_0 <= 0
 inactive_no_flow_12_21_0_0: flow_12_21_0_0 - 1000 edge_12_21_0_0 <= 0
 inactive_no_flow_12_22_0_0: flow_12_22_0_0 - 1000 edge_12_22_0_0 <= 0
 inactive_no_flow_12_23_0_0: flow_12_23_0_0 - 1000 edge_12_23_0_0 <= 0
 inactive_no_flow_12_24_0_0: flow_12_24_0_0 - 1000 edge_12_24_0_0 <= 0
 inactive_no_flow_12_25_0_0: flow_12_25_0_0 - 1000 edge_12_25_0_0 <= 0
 inactive_no_flow_12_27_0_0: flow_12_27_0_0 - 1000 edge_12_27_0_0 <= 0
 inactive_no_flow_12_29_0_0: flow_12_29_0_0 - 1000 edge_12_29_0_0 <= 0
 inactive_no_flow_12_30_0_0: flow_12_30_0_0 - 1000 edge_12_30_0_0 <= 0
 inactive_no_flow_13_9_0_0: flow_13_9_0_0 - 1000 edge_13_9_0_0 <= 0
 inactive_no_flow_13_10_0_0: flow_13_10_0_0 - 1000 edge_13_10_0_0 <= 0
 inactive_no_flow_14_3_0_0: flow_14_3_0_0 - 1000 edge_14_3_0_0 <= 0
 inactive_no_flow_14_5_0_0: flow_14_5_0_0 - 1000 edge_14_5_0_0 <= 0
 inactive_no_flow_14_8_0_0: flow_14_8_0_0 - 1000 edge_14_8_0_0 <= 0
 inactive_no_flow_14_9_0_0: flow_14_9_0_0 - 1000 edge_14_9_0_0 <= 0
 inactive_no_flow_14_10_0_0: flow_14_10_0_0 - 1000 edge_14_10_0_0 <= 0
 inactive_no_flow_14_12_0_0: flow_14_12_0_0 - 1000 edge_14_12_0_0 <= 0
 inactive_no_flow_14_13_0_0: flow_14_13_0_0 - 1000 edge_14_13_0_0 <= 0
 inactive_no_flow_14_15_0_0: flow_14_15_0_0 - 1000 edge_14_15_0_0 <= 0
 inactive_no_flow_14_16_0_0: flow_14_16_0_0 - 1000 edge_14_16_0_0 <= 0
 inactive_no_flow_14_18_0_0: flow_14_18_0_0 - 1000 edge_14_18_0_0 <= 0
 inactive_no_flow_14_20_0_0: flow_14_20_0_0 - 1000 edge_14_20_0_0 <= 0
 inactive_no_flow_14_22_0_0: flow_14_22_0_0 - 1000 edge_14_22_0_0 <= 0
 inactive_no_flow_14_24_0_0: flow_14_24_0_0 - 1000 edge_14_24_0_0 <= 0
 inactive_no_flow_14_27_0_0: flow_14_27_0_0 - 1000 edge_14_27_0_0 <= 0
 inactive_no_flow_14_29_0_0: flow_14_29_0_0 - 1000 edge_14_29_0_0 <= 0
 inactive_no_flow_14_30_0_0: flow_14_30_0_0 - 1000 edge_14_30_0_0 <= 0
 inactive_no_flow_15_3_0_0: flow_15_3_0_0 - 1000 edge_15_3_0_0 <= 0
 inactive_no_flow_15_5_0_0: flow_15_5_0_0 - 1000 edge_15_5_0_0 <= 0
 inactive_no_flow_15_6_0_0: flow_15_6_0_0 - 1000 edge_15_6_0_0 <= 0
 inactive_no_flow_15_7_0_0: flow_15_7_0_0 - 1000 edge_15_7_0_0 <= 0
 inactive_no_flow_15_8_0_0: flow_15_8_0_0 - 1000 edge_15_8_0_0 <= 0
 inactive_no_flow_15_9_0_0: flow_15_9_0_0 - 1000 edge_15_9_0_0 <= 0
 inactive_no_flow_15_10_0_0: flow_15_10_0_0 - 1000 edge_15_10_0_0 <= 0
 inactive_no_flow_15_12_0_0: flow_15_12_0_0 - 1000 edge_15_12_0_0 <= 0
 inactive_no_flow_15_13_0_0: flow_15_13_0_0 - 1000 edge_15_13_0_0 <= 0
 inactive_no_flow_15_14_0_0: flow_15_14_0_0 - 1000 edge_15_14_0_0 <= 0
 inactive_no_flow_15_16_0_0: flow_15_16_0_0 - 1000 edge_15_16_0_0 <= 0
 inactive_no_flow_15_18_0_0: flow_15_18_0_0 - 1000 edge_15_18_0_0 <= 0
 inactive_no_flow_15_20_0_0: flow_15_20_0_0 - 1000 edge_15_20_0_0 <= 0
 inactive_no_flow_15_21_0_0: flow_15_21_0_0 - 1000 edge_15_21_0_0 <= 0
 inactive_no_flow_15_22_0_0: flow_15_22_0_0 - 1000 edge_15_22_0_0 <= 0
 inactive_no_flow_15_23_0_0: flow_15_23_0_0 - 1000 edge_15_23_0_0 <= 0
 inactive_no_flow_15_24_0_0: flow_15_24_0_0 - 1000 edge_15_24_0_0 <= 0
 inactive_no_flow_15_25_0_0: flow_15_25_0_0 - 1000 edge_15_25_0_0 <= 0
 inactive_no_flow_15_27_0_0: flow_15_27_0_0 - 1000 edge_15_27_0_0 <= 0
 inactive_no_flow_15_29_0_0: flow_15_29_0_0 - 1000 edge_15_29_0_0 <= 0
 inactive_no_flow_15_30_0_0: flow_15_30_0_0 - 1000 edge_15_30_0_0 <= 0
 inactive_no_flow_16_15_0_0: flow_16_15_0_0 - 1000 edge_16_15_0_0 <= 0
 inactive_no_flow_18_3_0_0: flow_18_3_0_0 - 1000 edge_18_3_0_0 <= 0
 inactive_no_flow_18_5_0_0: flow_18_5_0_0 - 1000 edge_18_5_0_0 <= 0
 inactive_no_flow_18_6_0_0: flow_18_6_0_0 - 1000 edge_18_6_0_0 <= 0
 inactive_no_flow_18_7_0_0: flow_18_7_0_0 - 1000 edge_18_7_0_0 <= 0
 inactive_no_flow_18_8_0_0: flow_18_8_0_0 - 1000 edge_18_8_0_0 <= 0
 inactive_no_flow_18_9_0_0: flow_18_9_0_0 - 1000 edge_18_9_0_0 <= 0
 inactive_no_flow_18_10_0_0: flow_18_10_0_0 - 1000 edge_18_10_0_0 <= 0
 inactive_no_flow_18_12_0_0: flow_18_12_0_0 - 1000 edge_18_12_0_0 <= 0
 inactive_no_flow_18_13_0_0: flow_18_13_0_0 - 1000 edge_18_13_0_0 <= 0
 inactive_no_flow_18_14_0_0: flow_18_14_0_0 - 1000 edge_18_14_0_0 <= 0
 inactive_no_flow_18_15_0_0: flow_18_15_0_0 - 1000 edge_18_15_0_0 <= 0
 inactive_no_flow_18_16_0_0: flow_18_16_0_0 - 1000 edge_18_16_0_0 <= 0
 inactive_no_flow_18_20_0_0: flow_18_20_0_0 - 1000 edge_18_20_0_0 <= 0
 inactive_no_flow_18_21_0_0: flow_18_21_0_0 - 1000 edge_18_21_0_0 <= 0
 inactive_no_flow_18_22_0_0: flow_18_22_0_0 - 1000 edge_18_22_0_0 <= 0
 inactive_no_flow_18_23_0_0: flow_18_23_0_0 - 1000 edge_18_23_0_0 <= 0
 inactive_no_flow_18_24_0_0: flow_18_24_0_0 - 1000 edge_18_24_0_0 <= 0
 inactive_no_flow_18_25_0_0: flow_18_25_0_0 - 1000 edge_18_25_0_0 <= 0
 inactive_no_flow_18_27_0_0: flow_18_27_0_0 - 1000 edge_18_27_0_0 <= 0
 inactive_no_flow_18_29_0_0: flow_18_29_0_0 - 1000 edge_18_29_0_0 <= 0
 inactive_no_flow_18_30_0_0: flow_18_30_0_0 - 1000 edge_18_30_0_0 <= 0
 inactive_no_flow_20_16_0_0: flow_20_16_0_0 - 1000 edge_20_16_0_0 <= 0
 inactive_no_flow_20_18_0_0: flow_20_18_0_0 - 1000 edge_20_18_0_0 <= 0
 inactive_no_flow_20_21_0_0: flow_20_21_0_0 - 1000 edge_20_21_0_0 <= 0
 inactive_no_flow_21_14_0_0: flow_21_14_0_0 - 1000 edge_21_14_0_0 <= 0
 inactive_no_flow_21_18_0_0: flow_21_18_0_0 - 1000 edge_21_18_0_0 <= 0
 inactive_no_flow_21_20_0_0: flow_21_20_0_0 - 1000 edge_21_20_0_0 <= 0
 inactive_no_flow_21_22_0_0: flow_21_22_0_0 - 1000 edge_21_22_0_0 <= 0
 inactive_no_flow_21_23_0_0: flow_21_23_0_0 - 1000 edge_21_23_0_0 <= 0
 inactive_no_flow_21_24_0_0: flow_21_24_0_0 - 1000 edge_21_24_0_0 <= 0
 inactive_no_flow_21_25_0_0: flow_21_25_0_0 - 1000 edge_21_25_0_0 <= 0
 inactive_no_flow_21_27_0_0: flow_21_27_0_0 - 1000 edge_21_27_0_0 <= 0
 inactive_no_flow_21_29_0_0: flow_21_29_0_0 - 1000 edge_21_29_0_0 <= 0
 inactive_no_flow_21_30_0_0: flow_21_30_0_0 - 1000 edge_21_30_0_0 <= 0
 inactive_no_flow_22_20_0_0: flow_22_20_0_0 - 1000 edge_22_20_0_0 <= 0
 inactive_no_flow_22_21_0_0: flow_22_21_0_0 - 1000 edge_22_21_0_0 <= 0
 inactive_no_flow_22_23_0_0: flow_22_23_0_0 - 1000 edge_22_23_0_0 <= 0
 inactive_no_flow_23_25_0_0: flow_23_25_0_0 - 1000 edge_23_25_0_0 <= 0
 inactive_no_flow_24_18_0_0: flow_24_18_0_0 - 1000 edge_24_18_0_0 <= 0
 inactive_no_flow_24_20_0_0: flow_24_20_0_0 - 1000 edge_24_20_0_0 <= 0
 inactive_no_flow_24_21_0_0: flow_24_21_0_0 - 1000 edge_24_21_0_0 <= 0
 inactive_no_flow_24_22_0_0: flow_24_22_0_0 - 1000 edge_24_22_0_0 <= 0
 inactive_no_flow_24_23_0_0: flow_24_23_0_0 - 1000 edge_24_23_0_0 <= 0
 inactive_no_flow_24_25_0_0: flow_24_25_0_0 - 1000 edge_24_25_0_0 <= 0
 inactive_no_flow_24_27_0_0: flow_24_27_0_0 - 1000 edge_24_27_0_0 <= 0
 inactive_no_flow_24_29_0_0: flow_24_29_0_0 - 1000 edge_24_29_0_0 <= 0
 inactive_no_flow_24_30_0_0: flow_24_30_0_0 - 1000 edge_24_30_0_0 <= 0
 inactive_no_flow_25_24_0_0: flow_25_24_0_0 - 1000 edge_25_24_0_0 <= 0
 inactive_no_flow_27_3_0_0: flow_27_3_0_0 - 1000 edge_27_3_0_0 <= 0
 inactive_no_flow_27_5_0_0: flow_27_5_0_0 - 1000 edge_27_5_0_0 <= 0
 inactive_no_flow_27_6_0_0: flow_27_6_0_0 - 1000 edge_27_6_0_0 <= 0
 inactive_no_flow_27_7_0_0: flow_27_7_0_0 - 1000 edge_27_7_0_0 <= 0
 inactive_no_flow_27_8_0_0: flow_27_8_0_0 - 1000 edge_27_8_0_0 <= 0
 inactive_no_flow_27_10_0_0: flow_27_10_0_0 - 1000 edge_27_10_0_0 <= 0
 inactive_no_flow_27_12_0_0: flow_27_12_0_0 - 1000 edge_27_12_0_0 <= 0
 inactive_no_flow_27_14_0_0: flow_27_14_0_0 - 1000 edge_27_14_0_0 <= 0
 inactive_no_flow_27_15_0_0: flow_27_15_0_0 - 1000 edge_27_15_0_0 <= 0
 inactive_no_flow_27_16_0_0: flow_27_16_0_0 - 1000 edge_27_16_0_0 <= 0
 inactive_no_flow_27_18_0_0: flow_27_18_0_0 - 1000 edge_27_18_0_0 <= 0
 inactive_no_flow_27_21_0_0: flow_27_21_0_0 - 1000 edge_27_21_0_0 <= 0
 inactive_no_flow_27_22_0_0: flow_27_22_0_0 - 1000 edge_27_22_0_0 <= 0
 inactive_no_flow_27_23_0_0: flow_27_23_0_0 - 1000 edge_27_23_0_0 <= 0
 inactive_no_flow_27_24_0_0: flow_27_24_0_0 - 1000 edge_27_24_0_0 <= 0
 inactive_no_flow_27_25_0_0: flow_27_25_0_0 - 1000 edge_27_25_0_0 <= 0
 inactive_no_flow_27_29_0_0: flow_27_29_0_0 - 1000 edge_27_29_0_0 <= 0
 inactive_no_flow_27_30_0_0: flow_27_30_0_0 - 1000 edge_27_30_0_0 <= 0
 inactive_no_flow_29_23_0_0: flow_29_23_0_0 - 1000 edge_29_23_0_0 <= 0
 inactive_no_flow_29_24_0_0: flow_29_24_0_0 - 1000 edge_29_24_0_0 <= 0
 inactive_no_flow_29_25_0_0: flow_29_25_0_0 - 1000 edge_29_25_0_0 <= 0
 inactive_no_flow_29_27_0_0: flow_29_27_0_0 - 1000 edge_29_27_0_0 <= 0
 inactive_no_flow_29_30_0_0: flow_29_30_0_0 - 1000 edge_29_30_0_0 <= 0
 inactive_no_flow_30_27_0_0: flow_30_27_0_0 - 1000 edge_30_27_0_0 <= 0
Bounds
Binaries
 edge_0_3_0_0 edge_0_5_0_0 edge_0_6_0_0 edge_0_7_0_0 edge_0_8_0_0
 edge_3_5_0_0 edge_3_6_0_0 edge_3_7_0_0 edge_3_8_0_0 edge_3_9_0_0
 edge_3_10_0_0 edge_3_12_0_0 edge_3_13_0_0 edge_3_14_0_0 edge_3_15_0_0
 edge_3_16_0_0 edge_3_18_0_0 edge_3_20_0_0 edge_3_21_0_0 edge_3_22_0_0
 edge_3_23_0_0 edge_3_24_0_0 edge_3_25_0_0 edge_3_27_0_0 edge_3_29_0_0
 edge_3_30_0_0 edge_5_3_0_0 edge_5_6_0_0 edge_5_7_0_0 edge_5_8_0_0
 edge_5_9_0_0 edge_5_12_0_0 edge_5_13_0_0 edge_5_14_0_0 edge_5_15_0_0
 edge_5_16_0_0 edge_5_18_0_0 edge_5_20_0_0 edge_5_21_0_0 edge_5_22_0_0
 edge_5_29_0_0 edge_6_3_0_0 edge_6_5_0_0 edge_6_7_0_0 edge_6_8_0_0
 edge_7_3_0_0 edge_7_5_0_0 edge_7_6_0_0 edge_7_8_0_0 edge_7_9_0_0
 edge_7_10_0_0 edge_7_12_0_0 edge_7_13_0_0 edge_8_3_0_0 edge_8_5_0_0
 edge_8_6_0_0 edge_8_7_0_0 edge_8_9_0_0 edge_8_10_0_0 edge_8_12_0_0
 edge_8_13_0_0 edge_8_14_0_0 edge_8_15_0_0 edge_8_16_0_0 edge_8_18_0_0
 edge_8_20_0_0 edge_8_21_0_0 edge_8_22_0_0 edge_8_23_0_0 edge_8_24_0_0
 edge_8_25_0_0 edge_8_27_0_0 edge_8_29_0_0 edge_8_30_0_0 edge_9_6_0_0
 edge_9_7_0_0 edge_9_10_0_0 edge_9_12_0_0 edge_9_13_0_0 edge_9_14_0_0
 edge_9_15_0_0 edge_9_16_0_0 edge_10_9_0_0 edge_10_12_0_0 edge_10_13_0_0
 edge_10_14_0_0 edge_10_15_0_0 edge_12_3_0_0 edge_12_5_0_0 edge_12_6_0_0
 edge_12_7_0_0 edge_12_8_0_0 edge_12_9_0_0 edge_12_10_0_0 edge_12_13_0_0
 edge_12_14_0_0 edge_12_15_0_0 edge_12_16_0_0 edge_12_18_0_0 edge_12_20_0_0
 edge_12_21_0_0 edge_12_22_0_0 edge_12_23_0_0 edge_12_24_0_0 edge_12_25_0_0
 edge_12_27_0_0 edge_12_29_0_0 edge_12_30_0_0 edge_13_9_0_0 edge_13_10_0_0
 edge_14_3_0_0 edge_14_5_0_0 edge_14_8_0_0 edge_14_9_0_0 edge_14_10_0_0
 edge_14_12_0_0 edge_14_13_0_0 edge_14_15_0_0 edge_14_16_0_0 edge_14_18_0_0
 edge_14_20_0_0 edge_14_22_0_0 edge_14_24_0_0 edge_14_27_0_0 edge_14_29_0_0
 edge_14_30_0_0 edge_15_3_0_0 edge_15_5_0_0 edge_15_6_0_0 edge_15_7_0_0
 edge_15_8_0_0 edge_15_9_0_0 edge_15_10_0_0 edge_15_12_0_0 edge_15_13_0_0
 edge_15_14_0_0 edge_15_16_0_0 edge_15_18_0_0 edge_15_20_0_0 edge_15_21_0_0
 edge_15_22_0_0 edge_15_23_0_0 edge_15_24_0_0 edge_15_25_0_0 edge_15_27_0_0
 edge_15_29_0_0 edge_15_30_0_0 edge_16_15_0_0 edge_18_3_0_0 edge_18_5_0_0
 edge_18_6_0_0 edge_18_7_0_0 edge_18_8_0_0 edge_18_9_0_0 edge_18_10_0_0
 edge_18_12_0_0 edge_18_13_0_0 edge_18_14_0_0 edge_18_15_0_0 edge_18_16_0_0
 edge_18_20_0_0 edge_18_21_0_0 edge_18_22_0_0 edge_18_23_0_0 edge_18_24_0_0
 edge_18_25_0_0 edge_18_27_0_0 edge_18_29_0_0 edge_18_30_0_0 edge_20_16_0_0
 edge_20_18_0_0 edge_20_21_0_0 edge_21_14_0_0 edge_21_18_0_0 edge_21_20_0_0
 edge_21_22_0_0 edge_21_23_0_0 edge_21_24_0_0 edge_21_25_0_0 edge_21_27_0_0
 edge_21_29_0_0 edge_21_30_0_0 edge_22_20_0_0 edge_22_21_0_0 edge_22_23_0_0
 edge_23_25_0_0 edge_24_18_0_0 edge_24_20_0_0 edge_24_21_0_0 edge_24_22_0_0
 edge_24_23_0_0 edge_24_25_0_0 edge_24_27_0_0 edge_24_29_0_0 edge_24_30_0_0
 edge_25_24_0_0 edge_27_3_0_0 edge_27_5_0_0 edge_27_6_0_0 edge_27_7_0_0
 edge_27_8_0_0 edge_27_10_0_0 edge_27_12_0_0 edge_27_14_0_0 edge_27_15_0_0
 edge_27_16_0_0 edge_27_18_0_0 edge_27_21_0_0 edge_27_22_0_0 edge_27_23_0_0
 edge_27_24_0_0 edge_27_25_0_0 edge_27_29_0_0 edge_27_30_0_0 edge_29_23_0_0
 edge_29_24_0_0 edge_29_25_0_0 edge_29_27_0_0 edge_29_30_0_0 edge_30_27_0_0
End
